(set-logic OBJ)

; ∀ x ∈ POS. Respect(x) = true
; ∀ x ∈ NEG. Respect(x) = false
(synth-fun Respect ((x OBJ)) Bool
    (
        (Start Bool (
            ; Or/And/Not
            (Or Start Start)
            (And Start Start)
            (Not Start)

            ; userdefined functions
			; Person
			(Male x)
			(AgeLess x StartAge)
			(AgeGreater x StartAge)
			(AgeEq x StartAge)
			(Orientation x StartOrientation)
			(Glasses x)
			(Hat x)
			(HoldObjectsInFront x)
			(Bag x StartBag)
			(TopStyle x StartTopStyle)
			(BottomStyle x StartBottomStyle)
			(ShortSleeve x)
			(LongSleeve x)
			(LongCoat x)
			(Trousers x)
			(Shorts x)
			(SkirtDress x)
			(Boots x)
        ))

        ; terminals
		;Person
		(StartOrientation String ("Front" "Back" "Side"))
		(StartBag String ("BackPack" "ShoulderBag" "HandBag" "NoBag"))
		(StartTopStyle String ("UpperStride" "UpperLogo" "UpperPlaid" "UpperSplice" "NoTopStyle"))
		(StartBottomStyle String ("BottomStripe" "BottomPattern" "NoBottomStyle"))
		(StartAge Int (8 11 12 29 35 36 37 38 42 45 47 55 58 59 71))
    )
)

; I/O
; +
(declare-var x15 OBJ)
(declare-var x20 OBJ)
(declare-var x31 OBJ)
; -
(declare-var x14 OBJ)
(declare-var x16 OBJ)
(declare-var x22 OBJ)
(declare-var x27 OBJ)

; facts
; userdefined args = {}
(constraint (= (Respect {"id": 15, "cls": "Person", "Male": True, "Age": 47, "Orientation": "Front", "Glasses": False, "Hat": False, "HoldObjectsInFront": False, "Bag": "NoBag", "TopStyle": "UpperSplice", "BottomStyle": "NoBottomStyle", "ShortSleeve": False, "LongSleeve": True, "LongCoat": False, "Trousers": True, "Shorts": False, "SkirtDress": False, "Boots": True}) true))
(constraint (= (Respect {"id": 20, "cls": "Person", "Male": True, "Age": 37, "Orientation": "Front", "Glasses": False, "Hat": False, "HoldObjectsInFront": False, "Bag": "NoBag", "TopStyle": "NoTopStyle", "BottomStyle": "NoBottomStyle", "ShortSleeve": False, "LongSleeve": False, "LongCoat": True, "Trousers": True, "Shorts": False, "SkirtDress": False, "Boots": True}) true))
(constraint (= (Respect {"id": 31, "cls": "Person", "Male": True, "Age": 35, "Orientation": "Back", "Glasses": False, "Hat": False, "HoldObjectsInFront": False, "Bag": "NoBag", "TopStyle": "NoTopStyle", "BottomStyle": "NoBottomStyle", "ShortSleeve": False, "LongSleeve": True, "LongCoat": False, "Trousers": True, "Shorts": False, "SkirtDress": False, "Boots": False}) true))

(constraint (= (Respect {"id": 14, "cls": "Person", "Male": False, "Age": 38, "Orientation": "Front", "Glasses": False, "Hat": False, "HoldObjectsInFront": False, "Bag": "NoBag", "TopStyle": "NoTopStyle", "BottomStyle": "NoBottomStyle", "ShortSleeve": False, "LongSleeve": True, "LongCoat": False, "Trousers": True, "Shorts": False, "SkirtDress": False, "Boots": True}) false))
(constraint (= (Respect {"id": 16, "cls": "Person", "Male": False, "Age": 58, "Orientation": "Front", "Glasses": False, "Hat": False, "HoldObjectsInFront": False, "Bag": "NoBag", "TopStyle": "NoTopStyle", "BottomStyle": "NoBottomStyle", "ShortSleeve": False, "LongSleeve": False, "LongCoat": True, "Trousers": True, "Shorts": False, "SkirtDress": False, "Boots": True}) false))
(constraint (= (Respect {"id": 22, "cls": "Person", "Male": True, "Age": 12, "Orientation": "Front", "Glasses": False, "Hat": False, "HoldObjectsInFront": False, "Bag": "NoBag", "TopStyle": "NoTopStyle", "BottomStyle": "NoBottomStyle", "ShortSleeve": False, "LongSleeve": True, "LongCoat": False, "Trousers": True, "Shorts": False, "SkirtDress": False, "Boots": True}) false))
(constraint (= (Respect {"id": 27, "cls": "Person", "Male": False, "Age": 55, "Orientation": "Front", "Glasses": False, "Hat": False, "HoldObjectsInFront": False, "Bag": "NoBag", "TopStyle": "NoTopStyle", "BottomStyle": "NoBottomStyle", "ShortSleeve": False, "LongSleeve": True, "LongCoat": False, "Trousers": False, "Shorts": False, "SkirtDress": False, "Boots": False}) false))

(check-synth)
